# Solution for model F-JSSP-SDST
# Objective value = 808
B0(14) 1
B1(15) 1
B2(16) 0
B3(16) 1
B4(9) 0
B5(14) 1
B6(14) 1
B7(13) 0
B8(9) 1
B9(13) 0
B10(11) 1
B11(13) 0
B12(10) 1
B13(11) 1
B14(9) 0
B15(0) 0
B16(2) 0
B17(0) 0
B18(2) 0
B19(2) 0
B20(0) 0
B21(2) 0
B22(0) 0
B23(0) 0
B24(2) 1
B25(0) 0
B26(2) 0
B27(2) 0
B28(4) 0
B29(0) 0
B30(4) 0
B31(2) 0
B32(2) 0
B33(0) 0
B34(2) 0
B35(0) 0
B36(0) 0
B37(2) 0
B38(2) 0
B39(2) 1
B40(4) 0
B41(4) 0
B42(0) 0
B43(0) 0
B44(0) 0
B45(0) 0
B46(2) 0
B47(0) 0
B48(2) 0
B49(0) 0
B50(0) 0
B51(0) 0
B52(0) 0
B53(0) 0
B54(2) 1
B55(0) 0
B56(0) 0
B57(4) 0
B58(2) 0
B59(2) 0
B60(0) 0
B61(0) 0
B62(0) 0
B63(0) 0
B64(0) 0
B65(0) 0
B66(0) 0
B67(2) 1
B68(2) 0
B69(0) 0
B70(0) 0
B71(0) 0
B72(0) 0
B73(0) 0
B74(0) 0
B75(0) 0
B76(0) 0
B77(0) 0
B78(0) 0
B79(0) 0
B80(0) 0
B81(0) 0
B82(0) 0
B83(0) 0
B84(0) 0
B85(0) 0
B86(0) 0
B87(0) 0
B88(0) 0
B89(0) 0
B90(0) 0
B91(0) 0
B92(0) 0
B93(0) 0
B94(0) 0
B95(0) 0
I96(15) 0
I97(17) 27
I98(19) 0
I99(18) 80
I100(12) 0
I101(15) 76
I102(16) 116
I103(16) 0
I104(11) 266
I105(13) 0
I106(11) 12
I107(14) 0
I108(12) 72
I109(13) 252
I110(11) 0
I111(1) 808
